NAME: random-50-32693
TYPE: TSP
COMMENT: size=50 seed=32693
DIMENSION: 102
EDGE_WEIGHT_TYPE: EUC_2D
NODE_COORD_SECTION
+0 251 457
-0 251 457
+1 691 270
-1 906 936
+2 63 958
-2 481 638
+3 554 996
-3 682 480
+4 784 800
-4 975 421
+5 723 673
-5 352 355
+6 119 347
-6 725 88
+7 288 327
-7 854 472
+8 556 534
-8 922 359
+9 193 594
-9 94 185
+10 959 762
-10 974 885
+11 5 13
-11 454 882
+12 437 652
-12 520 183
+13 513 603
-13 909 949
+14 397 319
-14 862 719
+15 321 920
-15 744 422
+16 461 726
-16 514 742
+17 709 652
-17 771 807
+18 529 884
-18 52 54
+19 998 309
-19 813 157
+20 934 736
-20 751 164
+21 186 228
-21 122 367
+22 818 164
-22 203 181
+23 640 566
-23 861 159
+24 804 924
-24 346 532
+25 991 462
-25 920 794
+26 766 311
-26 910 361
+27 358 960
-27 286 522
+28 528 635
-28 139 898
+29 125 622
-29 22 708
+30 2 882
-30 236 576
+31 669 542
-31 995 869
+32 800 159
-32 100 846
+33 468 511
-33 920 228
+34 949 935
-34 191 725
+35 946 838
-35 680 80
+36 779 609
-36 28 751
+37 581 921
-37 606 527
+38 195 157
-38 883 455
+39 403 403
-39 184 980
+40 245 633
-40 40 942
+41 165 876
-41 339 871
+42 166 204
-42 282 804
+43 148 40
-43 911 102
+44 519 388
-44 598 676
+45 183 192
-45 934 554
+46 483 866
-46 329 700
+47 220 892
-47 110 797
+48 39 79
-48 755 598
+49 465 781
-49 686 569
+50 64 256
-50 890 734
PRECEDENCE_SECTION
+0 -0
+1 -1
+2 -2
+3 -3
+4 -4
+5 -5
+6 -6
+7 -7
+8 -8
+9 -9
+10 -10
+11 -11
+12 -12
+13 -13
+14 -14
+15 -15
+16 -16
+17 -17
+18 -18
+19 -19
+20 -20
+21 -21
+22 -22
+23 -23
+24 -24
+25 -25
+26 -26
+27 -27
+28 -28
+29 -29
+30 -30
+31 -31
+32 -32
+33 -33
+34 -34
+35 -35
+36 -36
+37 -37
+38 -38
+39 -39
+40 -40
+41 -41
+42 -42
+43 -43
+44 -44
+45 -45
+46 -46
+47 -47
+48 -48
+49 -49
+50 -50
EOF
